NAME : OMNETRUN
COMMENT : 524.61
TYPE : CVRP
DIMENSION : 21
EDGE_WEIGHT_TYPE : EUC_2D
CAPACITY : 21
NODE_COORD_SECTION
1 0.107093 -0.77924
2 130.905 -65.2602
3 123.442 -427.349
4 36.2434 -1405
5 112.414 -3569.94
6 112.959 -3972.07
7 50.0263 -5277.35
8 356.978 -1655.23
9 311.3 -2240.01
10 291.098 -2740.39
11 425.087 -3302.12
12 262.058 -4327.02
13 367.976 -4978.7
14 705.299 -672.601
15 676.943 -1254.48
16 735.68 -1953.67
17 583.885 -2532.1
18 527.529 -3664.59
19 516.858 -4056.58
20 620.186 -5395.79
21 890.135 -296.619
DEMAND_SECTION
1 0
2 1
3 1
4 1
5 1
6 1
7 1
8 1
9 1
10 1
11 1
12 1
13 1
14 1
15 1
16 1
17 1
18 1
19 1
20 1
21 1
DEPOT_SECTION
1
-1
EOF
